src/problems/cvrp/data/train_data/train_case_17.vrp
NAME : case_16
TYPE : CVRP
DIMENSION : 8
EDGE_WEIGHT_TYPE : EUC_2D
CAPACITY : 30
NODE_COORD_SECTION
1 37 31
2 20 26
3 56 37
4 63 65
5 49 58
5 35 17
7 49 11
8 20 65
DEMAND_SECTION
1 0
2 15
3 21
4 11
5 23
6 16
7 30
8 19
DEPOT_SECTION
1
-1
EOF
VEHICLE : 5
