src/problems/mkp/data/train_data/train_case_17.mkp
 6 10
 91 558 1279 2484 540 1665
 8 14 14 64 23 35
 7 9 15 60 20 44
 3 5 4 15 6 3
 4 8 6 28 5 13
 4 11 8 38 5 21
 4 12 6 44 5 20
 0 0 0 0 9 0
 2 0 4 0 7 0
 3 2 4 0 6 4
 3 1 4 8 9 4
 87 115 21 32 50 48 10 15 18 24